c This is QMaxSAT 2017 based on 14.07
c This is Glucose 3.0
c This is MiniSat 2.2.0
c WARNING: for repeatability, setting FPU to use double precision
c card = mrwto, comp = 0, pmodel = 0, narr = 3, mct = 14, verb = 0
cr firstCPXsol 0 0 0
c top = 80229
c |  Number of variables:    512                                              |
c |  Number of clauses:      6389                                             |
c |  Weight of hard clauses: 80229                                            |
c |  Number of soft clauses: 702                                              |
c |  Number of unit soft clauses: 0                                           |
c |  Maximum Cardinality (by unit): 301080       (0           )               |
c last restart ## conflicts  :  0 118 
o 6017 | cpuTime 0.03228 s
c Sum of weights = 100360
c A number of soft clauses remained = 234
c MRWTO encoding for Pseudo-Boolean Constraints
c sizeMax=6017
c No.0 Divisor=9	generated by pow1
c No.1 Divisor=9	generated by pow1
c No.2 Divisor=9	generated by pow1
c No.3 Divisor=9	generated by pow1
c p0= 9	p1= 9	p2= 9	p3= 9	
c number of digits = 5
c linkingVar[0].size = 9, linkingVar[1].size = 9, linkingVar[2].size = 9, linkingVar[3].size = 9, linkingVar[4].size = 1, 
c Pseudo-Boolean Constraints: 5755 variables and 47841 clauses
c Sum of weights = 100360
c A number of soft clauses remained = 234
c MRWTO encoding for Pseudo-Boolean Constraints
c sizeMax=6017
c No.0 Divisor=9	generated by pow1
c No.1 Divisor=9	generated by pow1
c No.2 Divisor=9	generated by pow1
c No.3 Divisor=9	generated by pow1
c p0= 9	p1= 9	p2= 9	p3= 9	
c number of digits = 5
c linkingVar[0].size = 9, linkingVar[1].size = 9, linkingVar[2].size = 9, linkingVar[3].size = 9, linkingVar[4].size = 1, 
c Pseudo-Boolean Constraints: 5755 variables and 47841 clauses
c Sum of weights = 100360
c A number of soft clauses remained = 234
c MRWTO encoding for Pseudo-Boolean Constraints
c sizeMax=6017
c No.0 Divisor=9	generated by pow1
c No.1 Divisor=9	generated by pow1
c No.2 Divisor=9	generated by pow1
c No.3 Divisor=9	generated by pow1
c p0= 9	p1= 9	p2= 9	p3= 9	
c number of digits = 5
c linkingVar[0].size = 9, linkingVar[1].size = 9, linkingVar[2].size = 9, linkingVar[3].size = 9, linkingVar[4].size = 1, 
c Pseudo-Boolean Constraints: 5755 variables and 47841 clauses
c last restart ## conflicts  :  95 881 
o 5735 | cpuTime 0.095472 s
c last restart ## conflicts  :  36 2178 
o 3453 | cpuTime 0.098305 s
c last restart ## conflicts  :  48 1795 
o 2970 | cpuTime 0.102017 s
c last restart ## conflicts  :  473 1102 
o 2266 | cpuTime 0.132722 s
c last restart ## conflicts  :  140 827 
o 1821 | cpuTime 0.208052 s
c last restart ## conflicts  :  1224 564 
o 1801 | cpuTime 1.47743 s
c last restart ## conflicts  :  458 632 
o 1779 | cpuTime 2.86438 s
c last restart ## conflicts  :  585 563 
o 1771 | cpuTime 150.272 s
c last restart ## conflicts  :  462 614 
o 1770 | cpuTime 150.316 s
c last restart ## conflicts  :  25830 430 
o 1766 | cpuTime 153.008 s
s UNKNOWN
c Search is stopped by a limit (maybe time-limit)
cr positiVarArr: [ | 4(1->2) | 23(1->5) | 44(1->10) | 53(2->3) | 70(3->4) | 88(4->6) | 98(5->1) | 121(6->7) | 129(7->1) | 147(8->1) | 175(9->13) | 189(10->11) | 203(11->9) | 224(12->14) | 238(13->12) | 250(14->8) | ]
cr the 1-th chain: [ 1->2->3->4->6->7->1 ] (#non-depot=5) {#cumul.=6}
cr the 2-th chain: [ 1->5->1 ] (#non-depot=1) {#cumul.=7}
cr the 3-th chain: [ 1->10->11->9->13->12->14->8->1 ] (#non-depot=7) {#cumul.=14}
c Latest Answer = 0 by 11 loops
c restarts              : 91570
c conflicts             : 13121360       (3648 /sec)
c decisions             : 23512421       (0.00 % random) (6536 /sec)
c propagations          : 1032878622     (287125 /sec)
c conflict literals     : 837001062      (19.86 % deleted)
c Memory used           : 347.00 MB
c CPU time              : 3597.31 s
